
100
9388

819 72
707 434
606 372
637 56
303 186
808 496
910 80
909 558
101 62
364 32
819 72
637 56
91 8
303 186
91 8
1010 620
606 372
404 248
819 72
909 558
728 64
546 48
707 434
808 496
273 24
101 62
606 372
707 434
707 434
91 8
101 62
606 372
606 372
546 48
303 186
707 434
546 48
101 62
606 372
808 496
404 248
1010 620
819 72
819 72
364 32
1010 620
819 72
182 16
303 186
273 24
91 8
505 310
728 64
910 80
819 72
909 558
101 62
637 56
637 56
91 8
101 62
91 8
910 80
91 8
182 16
637 56
202 124
404 248
910 80
202 124
91 8
404 248
808 496
637 56
91 8
1010 620
273 24
91 8
819 72
819 72
455 40
637 56
202 124
505 310
182 16
546 48
303 186
202 124
182 16
819 72
808 496
606 372
606 372
273 24
606 372
505 310
808 496
819 72
637 56
606 372
